p cnf 200 1110
-101 62 0
-101 -54 0
-101 14 0
-101 -58 0
-101 31 0
-101 -63 0
-101 -70 0
-101 -26 0
-101 82 0
-101 80 0
101 -62 54 -14 58 -31 63 70 26 -82 -80 0
-102 80 0
-102 21 0
-102 73 0
-102 75 0
-102 -66 0
-102 55 0
-102 27 0
-102 -52 0
-102 -32 0
-102 -20 0
102 -80 -21 -73 -75 66 -55 -27 52 32 20 0
-103 4 0
-103 47 0
-103 59 0
-103 -90 0
-103 15 0
-103 44 0
-103 19 0
-103 60 0
-103 73 0
-103 68 0
103 -4 -47 -59 90 -15 -44 -19 -60 -73 -68 0
-104 -62 0
-104 87 0
-104 97 0
-104 31 0
-104 52 0
-104 49 0
-104 -3 0
-104 58 0
-104 27 0
-104 -82 0
104 62 -87 -97 -31 -52 -49 3 -58 -27 82 0
-105 -6 0
-105 -87 0
-105 47 0
-105 93 0
-105 -40 0
-105 -49 0
-105 17 0
-105 41 0
-105 3 0
-105 43 0
105 6 87 -47 -93 40 49 -17 -41 -3 -43 0
-106 -96 0
-106 -70 0
-106 -27 0
-106 -58 0
-106 24 0
-106 -26 0
-106 76 0
-106 -49 0
-106 8 0
-106 38 0
106 96 70 27 58 -24 26 -76 49 -8 -38 0
-107 -87 0
-107 -46 0
-107 -41 0
-107 37 0
-107 34 0
-107 52 0
-107 84 0
-107 -53 0
-107 -58 0
-107 -8 0
107 87 46 41 -37 -34 -52 -84 53 58 8 0
-108 29 0
-108 -31 0
-108 17 0
-108 10 0
-108 30 0
-108 -81 0
-108 -58 0
-108 -23 0
-108 -24 0
-108 -35 0
108 -29 31 -17 -10 -30 81 58 23 24 35 0
-109 -53 0
-109 62 0
-109 78 0
-109 -69 0
-109 -89 0
-109 16 0
-109 75 0
-109 -100 0
-109 41 0
-109 2 0
109 53 -62 -78 69 89 -16 -75 100 -41 -2 0
-110 -26 0
-110 -50 0
-110 84 0
-110 55 0
-110 69 0
-110 36 0
-110 30 0
-110 61 0
-110 35 0
-110 -24 0
110 26 50 -84 -55 -69 -36 -30 -61 -35 24 0
101 102 103 104 105 106 107 108 109 110 0
-111 49 0
-111 35 0
-111 11 0
-111 57 0
-111 31 0
-111 -58 0
-111 -5 0
-111 -9 0
-111 -79 0
-111 84 0
111 -49 -35 -11 -57 -31 58 5 9 79 -84 0
-112 1 0
-112 -5 0
-112 62 0
-112 94 0
-112 -23 0
-112 -86 0
-112 85 0
-112 -35 0
-112 13 0
-112 -59 0
112 -1 5 -62 -94 23 86 -85 35 -13 59 0
-113 92 0
-113 -49 0
-113 -45 0
-113 -8 0
-113 27 0
-113 -94 0
-113 -11 0
-113 39 0
-113 48 0
-113 -64 0
113 -92 49 45 8 -27 94 11 -39 -48 64 0
-114 -57 0
-114 8 0
-114 -73 0
-114 79 0
-114 -99 0
-114 10 0
-114 100 0
-114 7 0
-114 87 0
-114 -26 0
114 57 -8 73 -79 99 -10 -100 -7 -87 26 0
-115 -51 0
-115 -4 0
-115 8 0
-115 80 0
-115 -59 0
-115 52 0
-115 -32 0
-115 -67 0
-115 95 0
-115 -97 0
115 51 4 -8 -80 59 -52 32 67 -95 97 0
-116 -75 0
-116 95 0
-116 -80 0
-116 -13 0
-116 -91 0
-116 54 0
-116 -84 0
-116 64 0
-116 -48 0
-116 33 0
116 75 -95 80 13 91 -54 84 -64 48 -33 0
-117 -21 0
-117 38 0
-117 -3 0
-117 66 0
-117 -48 0
-117 90 0
-117 80 0
-117 25 0
-117 4 0
-117 75 0
117 21 -38 3 -66 48 -90 -80 -25 -4 -75 0
-118 77 0
-118 96 0
-118 -22 0
-118 72 0
-118 11 0
-118 97 0
-118 -88 0
-118 53 0
-118 -9 0
-118 1 0
118 -77 -96 22 -72 -11 -97 88 -53 9 -1 0
-119 -76 0
-119 -31 0
-119 2 0
-119 -64 0
-119 19 0
-119 -77 0
-119 -18 0
-119 89 0
-119 84 0
-119 57 0
119 76 31 -2 64 -19 77 18 -89 -84 -57 0
-120 85 0
-120 65 0
-120 44 0
-120 55 0
-120 -1 0
-120 40 0
-120 -54 0
-120 22 0
-120 -97 0
-120 29 0
120 -85 -65 -44 -55 1 -40 54 -22 97 -29 0
111 112 113 114 115 116 117 118 119 120 0
-121 -29 0
-121 60 0
-121 82 0
-121 -92 0
-121 -77 0
-121 11 0
-121 72 0
-121 57 0
-121 96 0
-121 47 0
121 29 -60 -82 92 77 -11 -72 -57 -96 -47 0
-122 -50 0
-122 -95 0
-122 -53 0
-122 -60 0
-122 -66 0
-122 -91 0
-122 16 0
-122 22 0
-122 82 0
-122 39 0
122 50 95 53 60 66 91 -16 -22 -82 -39 0
-123 20 0
-123 -92 0
-123 -7 0
-123 -59 0
-123 -90 0
-123 -81 0
-123 -14 0
-123 86 0
-123 93 0
-123 76 0
123 -20 92 7 59 90 81 14 -86 -93 -76 0
-124 -67 0
-124 71 0
-124 61 0
-124 -21 0
-124 -75 0
-124 -46 0
-124 -77 0
-124 64 0
-124 99 0
-124 74 0
124 67 -71 -61 21 75 46 77 -64 -99 -74 0
-125 -83 0
-125 -43 0
-125 -16 0
-125 18 0
-125 73 0
-125 69 0
-125 -70 0
-125 -79 0
-125 7 0
-125 -82 0
125 83 43 16 -18 -73 -69 70 79 -7 82 0
-126 48 0
-126 -13 0
-126 -57 0
-126 19 0
-126 92 0
-126 -91 0
-126 60 0
-126 25 0
-126 88 0
-126 -9 0
126 -48 13 57 -19 -92 91 -60 -25 -88 9 0
-127 -18 0
-127 -98 0
-127 -57 0
-127 -13 0
-127 -31 0
-127 69 0
-127 1 0
-127 -9 0
-127 12 0
-127 45 0
127 18 98 57 13 31 -69 -1 9 -12 -45 0
-128 46 0
-128 -5 0
-128 -100 0
-128 -58 0
-128 -31 0
-128 27 0
-128 -63 0
-128 -9 0
-128 -44 0
-128 -59 0
128 -46 5 100 58 31 -27 63 9 44 59 0
-129 -81 0
-129 -86 0
-129 -14 0
-129 45 0
-129 9 0
-129 -13 0
-129 -33 0
-129 24 0
-129 -64 0
-129 -44 0
129 81 86 14 -45 -9 13 33 -24 64 44 0
-130 -20 0
-130 11 0
-130 -49 0
-130 61 0
-130 25 0
-130 1 0
-130 52 0
-130 53 0
-130 -31 0
-130 26 0
130 20 -11 49 -61 -25 -1 -52 -53 31 -26 0
121 122 123 124 125 126 127 128 129 130 0
-131 84 0
-131 -56 0
-131 -66 0
-131 18 0
-131 -16 0
-131 -41 0
-131 -34 0
-131 30 0
-131 64 0
-131 -80 0
131 -84 56 66 -18 16 41 34 -30 -64 80 0
-132 -74 0
-132 23 0
-132 24 0
-132 -6 0
-132 -39 0
-132 -54 0
-132 -3 0
-132 98 0
-132 -38 0
-132 -41 0
132 74 -23 -24 6 39 54 3 -98 38 41 0
-133 74 0
-133 11 0
-133 -99 0
-133 -87 0
-133 32 0
-133 93 0
-133 44 0
-133 16 0
-133 -5 0
-133 13 0
133 -74 -11 99 87 -32 -93 -44 -16 5 -13 0
-134 57 0
-134 -64 0
-134 21 0
-134 -51 0
-134 -91 0
-134 -8 0
-134 71 0
-134 -83 0
-134 -26 0
-134 -94 0
134 -57 64 -21 51 91 8 -71 83 26 94 0
-135 -84 0
-135 18 0
-135 -44 0
-135 -36 0
-135 -14 0
-135 12 0
-135 30 0
-135 57 0
-135 -80 0
-135 -25 0
135 84 -18 44 36 14 -12 -30 -57 80 25 0
-136 -12 0
-136 -69 0
-136 -10 0
-136 38 0
-136 14 0
-136 -95 0
-136 -43 0
-136 -11 0
-136 -27 0
-136 -90 0
136 12 69 10 -38 -14 95 43 11 27 90 0
-137 -85 0
-137 8 0
-137 98 0
-137 14 0
-137 -40 0
-137 -49 0
-137 -61 0
-137 -73 0
-137 96 0
-137 -48 0
137 85 -8 -98 -14 40 49 61 73 -96 48 0
-138 63 0
-138 -32 0
-138 -34 0
-138 -100 0
-138 23 0
-138 38 0
-138 -64 0
-138 72 0
-138 61 0
-138 37 0
138 -63 32 34 100 -23 -38 64 -72 -61 -37 0
-139 -98 0
-139 -8 0
-139 -90 0
-139 82 0
-139 1 0
-139 -69 0
-139 41 0
-139 83 0
-139 60 0
-139 -36 0
139 98 8 90 -82 -1 69 -41 -83 -60 36 0
-140 82 0
-140 52 0
-140 -59 0
-140 -6 0
-140 87 0
-140 -1 0
-140 -94 0
-140 -56 0
-140 71 0
-140 -11 0
140 -82 -52 59 6 -87 1 94 56 -71 11 0
131 132 133 134 135 136 137 138 139 140 0
-141 -36 0
-141 32 0
-141 86 0
-141 -14 0
-141 -20 0
-141 17 0
-141 72 0
-141 21 0
-141 13 0
-141 7 0
141 36 -32 -86 14 20 -17 -72 -21 -13 -7 0
-142 14 0
-142 -40 0
-142 60 0
-142 95 0
-142 -30 0
-142 98 0
-142 -76 0
-142 -89 0
-142 -88 0
-142 79 0
142 -14 40 -60 -95 30 -98 76 89 88 -79 0
-143 -65 0
-143 -49 0
-143 89 0
-143 -25 0
-143 55 0
-143 56 0
-143 66 0
-143 28 0
-143 46 0
-143 -62 0
143 65 49 -89 25 -55 -56 -66 -28 -46 62 0
-144 49 0
-144 -100 0
-144 29 0
-144 -39 0
-144 93 0
-144 -3 0
-144 13 0
-144 -23 0
-144 91 0
-144 -57 0
144 -49 100 -29 39 -93 3 -13 23 -91 57 0
-145 96 0
-145 84 0
-145 80 0
-145 -6 0
-145 -100 0
-145 57 0
-145 34 0
-145 40 0
-145 79 0
-145 45 0
145 -96 -84 -80 6 100 -57 -34 -40 -79 -45 0
-146 -41 0
-146 67 0
-146 50 0
-146 88 0
-146 29 0
-146 82 0
-146 4 0
-146 98 0
-146 -20 0
-146 -65 0
146 41 -67 -50 -88 -29 -82 -4 -98 20 65 0
-147 41 0
-147 91 0
-147 22 0
-147 -82 0
-147 -89 0
-147 -69 0
-147 -92 0
-147 -70 0
-147 -9 0
-147 -46 0
147 -41 -91 -22 82 89 69 92 70 9 46 0
-148 43 0
-148 -15 0
-148 -54 0
-148 -60 0
-148 -40 0
-148 -49 0
-148 -75 0
-148 70 0
-148 12 0
-148 -39 0
148 -43 15 54 60 40 49 75 -70 -12 39 0
-149 73 0
-149 -26 0
-149 -54 0
-149 -17 0
-149 -61 0
-149 -14 0
-149 -65 0
-149 9 0
-149 79 0
-149 45 0
149 -73 26 54 17 61 14 65 -9 -79 -45 0
-150 -45 0
-150 71 0
-150 -43 0
-150 -52 0
-150 -27 0
-150 -42 0
-150 68 0
-150 11 0
-150 -96 0
-150 -95 0
150 45 -71 43 52 27 42 -68 -11 96 95 0
141 142 143 144 145 146 147 148 149 150 0
-151 32 0
-151 -100 0
-151 -93 0
-151 -83 0
-151 -50 0
-151 12 0
-151 -82 0
-151 5 0
-151 45 0
-151 -26 0
151 -32 100 93 83 50 -12 82 -5 -45 26 0
-152 -37 0
-152 14 0
-152 73 0
-152 -27 0
-152 31 0
-152 -35 0
-152 -97 0
-152 -20 0
-152 40 0
-152 -42 0
152 37 -14 -73 27 -31 35 97 20 -40 42 0
-153 69 0
-153 -61 0
-153 -53 0
-153 -40 0
-153 -21 0
-153 48 0
-153 35 0
-153 -49 0
-153 41 0
-153 -43 0
153 -69 61 53 40 21 -48 -35 49 -41 43 0
-154 -8 0
-154 17 0
-154 -4 0
-154 -64 0
-154 3 0
-154 -90 0
-154 99 0
-154 -70 0
-154 -34 0
-154 -61 0
154 8 -17 4 64 -3 90 -99 70 34 61 0
-155 -45 0
-155 -63 0
-155 57 0
-155 80 0
-155 -66 0
-155 13 0
-155 65 0
-155 -90 0
-155 -74 0
-155 -95 0
155 45 63 -57 -80 66 -13 -65 90 74 95 0
-156 32 0
-156 40 0
-156 -89 0
-156 86 0
-156 5 0
-156 -56 0
-156 70 0
-156 -27 0
-156 37 0
-156 98 0
156 -32 -40 89 -86 -5 56 -70 27 -37 -98 0
-157 34 0
-157 5 0
-157 91 0
-157 -36 0
-157 -47 0
-157 -72 0
-157 13 0
-157 24 0
-157 39 0
-157 67 0
157 -34 -5 -91 36 47 72 -13 -24 -39 -67 0
-158 -6 0
-158 18 0
-158 80 0
-158 -51 0
-158 93 0
-158 64 0
-158 82 0
-158 31 0
-158 73 0
-158 55 0
158 6 -18 -80 51 -93 -64 -82 -31 -73 -55 0
-159 -18 0
-159 21 0
-159 -96 0
-159 -80 0
-159 -32 0
-159 -11 0
-159 -17 0
-159 50 0
-159 54 0
-159 -76 0
159 18 -21 96 80 32 11 17 -50 -54 76 0
-160 16 0
-160 -77 0
-160 -1 0
-160 26 0
-160 -43 0
-160 -82 0
-160 48 0
-160 12 0
-160 -44 0
-160 11 0
160 -16 77 1 -26 43 82 -48 -12 44 -11 0
151 152 153 154 155 156 157 158 159 160 0
-161 -10 0
-161 -72 0
-161 57 0
-161 -19 0
-161 -55 0
-161 -42 0
-161 34 0
-161 -4 0
-161 -31 0
-161 28 0
161 10 72 -57 19 55 42 -34 4 31 -28 0
-162 -11 0
-162 -8 0
-162 33 0
-162 12 0
-162 -36 0
-162 -41 0
-162 -40 0
-162 -3 0
-162 -51 0
-162 -60 0
162 11 8 -33 -12 36 41 40 3 51 60 0
-163 50 0
-163 76 0
-163 -82 0
-163 63 0
-163 29 0
-163 -93 0
-163 42 0
-163 10 0
-163 90 0
-163 -37 0
163 -50 -76 82 -63 -29 93 -42 -10 -90 37 0
-164 76 0
-164 63 0
-164 68 0
-164 67 0
-164 75 0
-164 -56 0
-164 99 0
-164 15 0
-164 31 0
-164 -33 0
164 -76 -63 -68 -67 -75 56 -99 -15 -31 33 0
-165 -11 0
-165 -81 0
-165 -74 0
-165 -77 0
-165 -55 0
-165 -3 0
-165 -10 0
-165 -24 0
-165 80 0
-165 16 0
165 11 81 74 77 55 3 10 24 -80 -16 0
-166 83 0
-166 -3 0
-166 82 0
-166 -84 0
-166 60 0
-166 -53 0
-166 11 0
-166 44 0
-166 -71 0
-166 57 0
166 -83 3 -82 84 -60 53 -11 -44 71 -57 0
-167 88 0
-167 -33 0
-167 -38 0
-167 -31 0
-167 65 0
-167 97 0
-167 46 0
-167 14 0
-167 58 0
-167 79 0
167 -88 33 38 31 -65 -97 -46 -14 -58 -79 0
-168 -85 0
-168 49 0
-168 -1 0
-168 -18 0
-168 57 0
-168 95 0
-168 -5 0
-168 10 0
-168 -45 0
-168 88 0
168 85 -49 1 18 -57 -95 5 -10 45 -88 0
-169 98 0
-169 88 0
-169 45 0
-169 -16 0
-169 -23 0
-169 -40 0
-169 10 0
-169 -69 0
-169 -79 0
-169 -51 0
169 -98 -88 -45 16 23 40 -10 69 79 51 0
-170 -48 0
-170 -99 0
-170 -29 0
-170 80 0
-170 -86 0
-170 56 0
-170 -12 0
-170 40 0
-170 54 0
-170 30 0
170 48 99 29 -80 86 -56 12 -40 -54 -30 0
161 162 163 164 165 166 167 168 169 170 0
-171 -31 0
-171 -84 0
-171 24 0
-171 59 0
-171 -22 0
-171 -2 0
-171 49 0
-171 -96 0
-171 50 0
-171 18 0
171 31 84 -24 -59 22 2 -49 96 -50 -18 0
-172 -100 0
-172 -24 0
-172 -86 0
-172 88 0
-172 -1 0
-172 78 0
-172 -53 0
-172 36 0
-172 49 0
-172 26 0
172 100 24 86 -88 1 -78 53 -36 -49 -26 0
-173 27 0
-173 7 0
-173 -57 0
-173 -11 0
-173 -67 0
-173 84 0
-173 63 0
-173 61 0
-173 -59 0
-173 -17 0
173 -27 -7 57 11 67 -84 -63 -61 59 17 0
-174 -33 0
-174 -10 0
-174 88 0
-174 -46 0
-174 31 0
-174 -62 0
-174 -8 0
-174 86 0
-174 19 0
-174 85 0
174 33 10 -88 46 -31 62 8 -86 -19 -85 0
-175 65 0
-175 -27 0
-175 80 0
-175 -56 0
-175 8 0
-175 -55 0
-175 -61 0
-175 13 0
-175 -48 0
-175 93 0
175 -65 27 -80 56 -8 55 61 -13 48 -93 0
-176 56 0
-176 -18 0
-176 -11 0
-176 -12 0
-176 22 0
-176 71 0
-176 -25 0
-176 -33 0
-176 -67 0
-176 58 0
176 -56 18 11 12 -22 -71 25 33 67 -58 0
-177 -54 0
-177 27 0
-177 100 0
-177 -92 0
-177 31 0
-177 -91 0
-177 94 0
-177 7 0
-177 85 0
-177 -61 0
177 54 -27 -100 92 -31 91 -94 -7 -85 61 0
-178 25 0
-178 -43 0
-178 78 0
-178 -27 0
-178 52 0
-178 -15 0
-178 81 0
-178 -67 0
-178 -29 0
-178 -6 0
178 -25 43 -78 27 -52 15 -81 67 29 6 0
-179 6 0
-179 18 0
-179 96 0
-179 -24 0
-179 69 0
-179 97 0
-179 62 0
-179 -36 0
-179 -54 0
-179 5 0
179 -6 -18 -96 24 -69 -97 -62 36 54 -5 0
-180 -19 0
-180 17 0
-180 -12 0
-180 -72 0
-180 -82 0
-180 -80 0
-180 48 0
-180 -84 0
-180 -66 0
-180 -49 0
180 19 -17 12 72 82 80 -48 84 66 49 0
171 172 173 174 175 176 177 178 179 180 0
-181 51 0
-181 80 0
-181 21 0
-181 97 0
-181 -92 0
-181 -31 0
-181 -18 0
-181 79 0
-181 82 0
-181 27 0
181 -51 -80 -21 -97 92 31 18 -79 -82 -27 0
-182 68 0
-182 14 0
-182 97 0
-182 17 0
-182 -80 0
-182 94 0
-182 25 0
-182 -60 0
-182 43 0
-182 -92 0
182 -68 -14 -97 -17 80 -94 -25 60 -43 92 0
-183 94 0
-183 -19 0
-183 38 0
-183 -78 0
-183 43 0
-183 39 0
-183 50 0
-183 -93 0
-183 -64 0
-183 51 0
183 -94 19 -38 78 -43 -39 -50 93 64 -51 0
-184 46 0
-184 -30 0
-184 -9 0
-184 6 0
-184 -13 0
-184 79 0
-184 -70 0
-184 73 0
-184 -47 0
-184 -33 0
184 -46 30 9 -6 13 -79 70 -73 47 33 0
-185 -47 0
-185 27 0
-185 -81 0
-185 -66 0
-185 -79 0
-185 67 0
-185 -87 0
-185 26 0
-185 -55 0
-185 53 0
185 47 -27 81 66 79 -67 87 -26 55 -53 0
-186 56 0
-186 -35 0
-186 34 0
-186 -18 0
-186 -13 0
-186 -46 0
-186 -8 0
-186 71 0
-186 15 0
-186 73 0
186 -56 35 -34 18 13 46 8 -71 -15 -73 0
-187 4 0
-187 -99 0
-187 76 0
-187 93 0
-187 -87 0
-187 11 0
-187 -78 0
-187 71 0
-187 -72 0
-187 82 0
187 -4 99 -76 -93 87 -11 78 -71 72 -82 0
-188 -33 0
-188 -64 0
-188 27 0
-188 -23 0
-188 -43 0
-188 -95 0
-188 -12 0
-188 96 0
-188 -71 0
-188 35 0
188 33 64 -27 23 43 95 12 -96 71 -35 0
-189 56 0
-189 -38 0
-189 68 0
-189 64 0
-189 -32 0
-189 -17 0
-189 -30 0
-189 -28 0
-189 -3 0
-189 -71 0
189 -56 38 -68 -64 32 17 30 28 3 71 0
-190 37 0
-190 27 0
-190 -58 0
-190 -86 0
-190 -70 0
-190 -85 0
-190 91 0
-190 11 0
-190 59 0
-190 -89 0
190 -37 -27 58 86 70 85 -91 -11 -59 89 0
181 182 183 184 185 186 187 188 189 190 0
-191 -15 0
-191 -97 0
-191 92 0
-191 -7 0
-191 -60 0
-191 24 0
-191 67 0
-191 -83 0
-191 -35 0
-191 -14 0
191 15 97 -92 7 60 -24 -67 83 35 14 0
-192 -31 0
-192 8 0
-192 -11 0
-192 58 0
-192 -62 0
-192 44 0
-192 -77 0
-192 19 0
-192 -12 0
-192 -20 0
192 31 -8 11 -58 62 -44 77 -19 12 20 0
-193 43 0
-193 6 0
-193 -39 0
-193 -25 0
-193 15 0
-193 19 0
-193 -50 0
-193 -80 0
-193 83 0
-193 -51 0
193 -43 -6 39 25 -15 -19 50 80 -83 51 0
-194 75 0
-194 -71 0
-194 39 0
-194 24 0
-194 -86 0
-194 -64 0
-194 51 0
-194 -14 0
-194 42 0
-194 22 0
194 -75 71 -39 -24 86 64 -51 14 -42 -22 0
-195 -68 0
-195 45 0
-195 77 0
-195 57 0
-195 12 0
-195 46 0
-195 -22 0
-195 4 0
-195 -21 0
-195 25 0
195 68 -45 -77 -57 -12 -46 22 -4 21 -25 0
-196 -15 0
-196 86 0
-196 12 0
-196 10 0
-196 80 0
-196 27 0
-196 -95 0
-196 38 0
-196 -4 0
-196 13 0
196 15 -86 -12 -10 -80 -27 95 -38 4 -13 0
-197 -33 0
-197 100 0
-197 29 0
-197 78 0
-197 14 0
-197 2 0
-197 26 0
-197 74 0
-197 -73 0
-197 51 0
197 33 -100 -29 -78 -14 -2 -26 -74 73 -51 0
-198 2 0
-198 -91 0
-198 -87 0
-198 -12 0
-198 7 0
-198 46 0
-198 -48 0
-198 69 0
-198 62 0
-198 85 0
198 -2 91 87 12 -7 -46 48 -69 -62 -85 0
-199 -31 0
-199 95 0
-199 -3 0
-199 -85 0
-199 15 0
-199 -89 0
-199 14 0
-199 -7 0
-199 58 0
-199 69 0
199 31 -95 3 85 -15 89 -14 7 -58 -69 0
-200 -79 0
-200 44 0
-200 -5 0
-200 9 0
-200 -7 0
-200 58 0
-200 39 0
-200 4 0
-200 10 0
-200 6 0
200 79 -44 5 -9 7 -58 -39 -4 -10 -6 0
191 192 193 194 195 196 197 198 199 200 0
